Maximize
  0 x0 - 12 x1 + 0 x2 - 43 x3 + 0 x4 + 0 x5 + 0 x6 + 0 x7 - 33 x8 + 34 x9
   + 39 x10 + 0 x11 + 26 x12 + 27 x13 + 7 x14 + 4 x15 + 0 x16 + 0 x17
   - 15 x18 - 31 x19 + 0 x20 + 0 x21 + 0 x22 - 31 x23 + 49 x24 - 9 x25
   + 0 x26 + 46 x27 - 34 x28 + 0 x29 + 0 x30 + 0 x31 + 0 x32 + 0 x33
   + 0 x34 + 0 x35 - 17 x36 + 0 x37 + 0 x38 + 42 x39 + 49 x40 + 0 x41
   + 0 x42 + 46 x43 + 0 x44 + 0 x45 + 0 x46 + 23 x47 + 34 x48 + 45 x49 + [
   72 x0 * x1 + 18 x0 * x2 + 96 x0 * x5 - 16 x0 * x7 + 58 x0 * x8
   + 50 x0 * x11 - 82 x0 * x12 - 2 x0 * x14 - 22 x0 * x20 - 40 x0 * x21
   + 18 x0 * x23 - 40 x0 * x24 + 44 x0 * x25 - 54 x0 * x26 + 20 x0 * x28
   - 64 x0 * x32 + 96 x0 * x33 - 60 x0 * x34 - 14 x0 * x35 + 60 x0 * x38
   - 42 x0 * x39 + 10 x0 * x40 - 84 x0 * x43 - 14 x0 * x45 + 40 x0 * x46
   + 92 x0 * x48 - 48 x1 * x4 + 40 x1 * x6 + 80 x1 * x8 + 32 x1 * x9
   + 54 x1 * x11 + 80 x1 * x12 - 62 x1 * x13 - 32 x1 * x14 - 66 x1 * x16
   - 10 x1 * x18 + 34 x1 * x19 + 72 x1 * x20 - 2 x1 * x21 - 18 x1 * x23
   + 20 x1 * x24 + 8 x1 * x25 - 78 x1 * x28 + 34 x1 * x29 - 12 x1 * x30
   + 24 x1 * x33 - 58 x1 * x35 - 56 x1 * x38 + 72 x1 * x39 - 74 x1 * x41
   - 60 x1 * x42 - 86 x1 * x45 + 12 x1 * x47 + 82 x1 * x49 + 12 x2 * x8
   - 84 x2 * x10 + 44 x2 * x11 - 60 x2 * x12 - 90 x2 * x14 - 82 x2 * x15
   + 20 x2 * x16 - 72 x2 * x20 - 86 x2 * x23 + 60 x2 * x24 - 4 x2 * x26
   + 26 x2 * x27 - 8 x2 * x28 - 32 x2 * x30 + 78 x2 * x35 + 22 x2 * x40
   + 66 x2 * x41 - 92 x2 * x42 - 58 x2 * x43 - 96 x2 * x44 + 30 x2 * x45
   + 38 x2 * x47 - 56 x2 * x48 - 52 x2 * x49 + 43 x3 ^2 - 22 x3 * x4
   - 98 x3 * x5 + 74 x3 * x6 + 96 x3 * x8 + 58 x3 * x12 - 8 x3 * x13
   + 6 x3 * x15 + 68 x3 * x16 - 72 x3 * x20 - 40 x3 * x21 - 42 x3 * x22
   - 70 x3 * x24 + 60 x3 * x26 - 14 x3 * x27 - 58 x3 * x28 - 48 x3 * x29
   + 62 x3 * x30 - 88 x3 * x33 + 78 x3 * x35 - 76 x3 * x38 - 48 x3 * x39
   + 74 x3 * x46 + 18 x3 * x48 - 18 x4 * x5 + 34 x4 * x6 - 62 x4 * x9
   - 70 x4 * x10 - 10 x4 * x11 + 94 x4 * x12 + 12 x4 * x15 + 36 x4 * x16
   + 70 x4 * x19 - 12 x4 * x27 + 38 x4 * x30 + 58 x4 * x31 - 98 x4 * x33
   - 4 x4 * x34 + 4 x4 * x35 + 56 x4 * x37 - 8 x4 * x38 + 42 x4 * x39
   + 12 x4 * x40 + 58 x4 * x41 - 4 x4 * x42 + 26 x4 * x45 + 36 x4 * x46
   - 38 x4 * x47 + 38 x5 ^2 - 90 x5 * x7 + 98 x5 * x8 - 82 x5 * x9
   + 34 x5 * x10 - 66 x5 * x11 + 54 x5 * x13 + 2 x5 * x14 - 60 x5 * x17
   + 86 x5 * x21 - 70 x5 * x22 - 6 x5 * x23 - 90 x5 * x24 + 78 x5 * x25
   + 90 x5 * x26 - 16 x5 * x28 + 40 x5 * x32 + 86 x5 * x33 + 36 x5 * x34
   - 8 x5 * x38 - 82 x5 * x41 + 50 x5 * x42 + 4 x5 * x45 - 46 x5 * x46
   + 88 x5 * x47 - 88 x5 * x48 + 40 x6 * x8 + 40 x6 * x11 + 84 x6 * x13
   - 16 x6 * x14 - 52 x6 * x15 - 44 x6 * x18 + 88 x6 * x19 - 70 x6 * x20
   + 58 x6 * x22 + 72 x6 * x24 + 20 x6 * x25 - 62 x6 * x26 + 22 x6 * x27
   + 60 x6 * x28 + 42 x6 * x30 - 70 x6 * x32 + 80 x6 * x33 + 44 x6 * x35
   + 54 x6 * x36 - 16 x6 * x40 + 62 x6 * x41 + 62 x6 * x42 + 26 x6 * x44
   - 28 x6 * x48 + 66 x6 * x49 + 42 x7 * x8 + 92 x7 * x11 - 34 x7 * x12
   + 54 x7 * x13 - 62 x7 * x14 - 32 x7 * x18 + 56 x7 * x19 - 36 x7 * x22
   + 68 x7 * x23 - 38 x7 * x24 - 40 x7 * x26 + 92 x7 * x29 + 58 x7 * x31
   + 56 x7 * x32 - 16 x7 * x33 - 88 x7 * x35 + 2 x7 * x36 - 98 x7 * x37
   + 26 x7 * x40 - 34 x7 * x41 + 28 x7 * x42 - 82 x7 * x48 + 28 x7 * x49
   + 6 x8 * x11 - 72 x8 * x12 + 68 x8 * x14 - 86 x8 * x15 - 22 x8 * x16
   - 60 x8 * x17 + 24 x8 * x19 + 86 x8 * x20 + 54 x8 * x22 + 24 x8 * x23
   + 4 x8 * x24 + 14 x8 * x25 - 16 x8 * x26 + 78 x8 * x27 - 84 x8 * x28
   + 98 x8 * x38 - 10 x8 * x39 - 26 x8 * x42 + 36 x8 * x44 - 90 x8 * x48
   + 76 x8 * x49 + 94 x9 * x10 - 26 x9 * x11 - 16 x9 * x12 - 36 x9 * x14
   - 88 x9 * x21 + 96 x9 * x22 + 18 x9 * x23 + 26 x9 * x24 - 56 x9 * x25
   - 16 x9 * x27 - 78 x9 * x31 - 76 x9 * x32 + 80 x9 * x38 + 46 x9 * x39
   - 76 x9 * x42 - 92 x9 * x45 - 34 x9 * x47 - 19 x10 ^2 - 52 x10 * x11
   - 10 x10 * x13 + 20 x10 * x16 + 20 x10 * x19 - 58 x10 * x22
   - 94 x10 * x23 - 36 x10 * x24 + 4 x10 * x25 - 28 x10 * x27
   - 64 x10 * x30 - 66 x10 * x31 - 98 x10 * x33 - 6 x10 * x36
   + 22 x10 * x37 + 88 x10 * x41 - 12 x10 * x43 + 4 x10 * x45
   - 66 x10 * x49 - 49 x11 ^2 - 48 x11 * x14 - 48 x11 * x17 + 6 x11 * x22
   + 96 x11 * x23 - 38 x11 * x25 - 52 x11 * x27 - 70 x11 * x29
   - 22 x11 * x31 - 66 x11 * x32 - 86 x11 * x35 - 52 x11 * x38
   + 8 x11 * x39 + 42 x11 * x40 + 70 x11 * x45 + 80 x11 * x46
   + 72 x11 * x47 + 14 x11 * x48 - 78 x12 * x16 - 42 x12 * x17
   - 62 x12 * x19 + 38 x12 * x23 + 82 x12 * x24 - 42 x12 * x25
   - 46 x12 * x28 + 72 x12 * x29 - 84 x12 * x31 + 94 x12 * x32
   + 50 x12 * x33 - 58 x12 * x34 - 30 x12 * x36 - 76 x12 * x37
   + 96 x12 * x44 - 36 x12 * x48 - 64 x12 * x49 - 26 x13 * x14
   - 80 x13 * x16 + 30 x13 * x24 - 16 x13 * x26 + 84 x13 * x28
   + 62 x13 * x32 + 54 x13 * x33 + 88 x13 * x34 - 80 x13 * x35
   + 24 x13 * x36 + 66 x13 * x41 - 2 x13 * x43 - 18 x13 * x46
   + 90 x13 * x47 + 10 x13 * x48 - 74 x14 * x21 - 26 x14 * x22
   - 36 x14 * x24 - 24 x14 * x25 - 22 x14 * x27 - 82 x14 * x30
   - 82 x14 * x31 + 32 x14 * x32 + 28 x14 * x36 + 70 x14 * x39
   + 82 x14 * x40 - 44 x14 * x41 - 18 x14 * x42 + 58 x14 * x43
   - 26 x14 * x45 + 24 x14 * x46 + 34 x14 * x49 - 34 x15 ^2 - 28 x15 * x21
   - 52 x15 * x22 + 28 x15 * x23 + 80 x15 * x24 + 98 x15 * x27
   + 36 x15 * x29 + 86 x15 * x32 - 20 x15 * x33 - 62 x15 * x34
   + 72 x15 * x35 + 88 x15 * x36 - 52 x15 * x38 + 42 x15 * x39
   - 60 x15 * x41 - 14 x15 * x44 - 10 x15 * x45 - 6 x15 * x46
   - 88 x15 * x48 - 26 x15 * x49 + 12 x16 ^2 + 78 x16 * x19 - 42 x16 * x23
   - 36 x16 * x24 + 80 x16 * x25 + 2 x16 * x26 + 2 x16 * x27 + 28 x16 * x28
   + 28 x16 * x29 - 8 x16 * x30 + 20 x16 * x32 - 20 x16 * x34 + 6 x16 * x36
   + 2 x16 * x38 + 40 x16 * x39 + 56 x16 * x40 + 26 x16 * x43
   - 64 x16 * x44 - 78 x16 * x45 + 14 x16 * x47 - 34 x17 ^2 + 44 x17 * x18
   - 32 x17 * x19 - 84 x17 * x21 + 22 x17 * x22 + 76 x17 * x23
   - 62 x17 * x27 + 86 x17 * x28 + 18 x17 * x31 + 62 x17 * x33
   + 72 x17 * x36 - 78 x17 * x37 - 4 x17 * x38 - 52 x17 * x43
   + 98 x17 * x45 + 64 x17 * x47 - 12 x18 ^2 - 52 x18 * x19 + 84 x18 * x21
   - 76 x18 * x22 + 6 x18 * x23 + 84 x18 * x24 - 70 x18 * x26
   + 52 x18 * x28 + 98 x18 * x30 - 34 x18 * x31 + 2 x18 * x35
   + 30 x18 * x37 - 12 x18 * x40 - 50 x18 * x41 + 68 x18 * x42
   - 88 x18 * x44 + 80 x18 * x45 + 52 x18 * x46 - 28 x18 * x47
   + 98 x18 * x49 + 34 x19 ^2 + 44 x19 * x22 - 54 x19 * x24 - 60 x19 * x25
   - 2 x19 * x26 - 4 x19 * x30 - 30 x19 * x32 - 20 x19 * x34 - 12 x19 * x42
   + 68 x19 * x46 - 46 x20 ^2 - 88 x20 * x22 + 42 x20 * x23 + 72 x20 * x25
   + 4 x20 * x26 + 84 x20 * x28 - 68 x20 * x30 + 72 x20 * x33
   + 20 x20 * x35 + 36 x20 * x36 + 58 x20 * x37 + 82 x20 * x38
   + 68 x20 * x40 - 84 x20 * x41 + 84 x20 * x42 + 40 x20 * x43
   - 94 x20 * x44 - 12 x20 * x47 - 92 x20 * x49 + 47 x21 ^2 - 56 x21 * x22
   - 94 x21 * x23 - 40 x21 * x26 + 6 x21 * x27 - 4 x21 * x28 - 2 x21 * x30
   + 56 x21 * x31 + 92 x21 * x33 - 4 x21 * x34 - 90 x21 * x36 - 6 x21 * x37
   + 66 x21 * x39 + 14 x21 * x43 - 38 x21 * x44 - 44 x21 * x45
   + 34 x21 * x46 + 26 x21 * x47 - 28 x21 * x48 + 46 x21 * x49 + 26 x22 ^2
   + 36 x22 * x23 + 2 x22 * x24 - 58 x22 * x25 + 86 x22 * x28
   - 28 x22 * x30 - 48 x22 * x34 + 64 x22 * x36 - 48 x22 * x37
   + 20 x22 * x41 - 22 x22 * x44 + 22 x22 * x45 + 82 x22 * x47
   + 12 x23 * x24 + 82 x23 * x26 + 56 x23 * x27 - 20 x23 * x29
   + 32 x23 * x30 - 24 x23 * x31 + 82 x23 * x34 - 78 x23 * x37
   - 12 x23 * x38 - 46 x23 * x40 + 36 x23 * x43 + 50 x23 * x44
   + 76 x23 * x45 - 22 x23 * x47 + 42 x23 * x49 - 30 x24 ^2 - 32 x24 * x26
   + 20 x24 * x27 + 4 x24 * x30 + 96 x24 * x35 - 80 x24 * x38
   - 86 x24 * x39 - 48 x24 * x40 - 34 x24 * x41 + 62 x24 * x42
   - 2 x24 * x45 + 34 x24 * x46 + 52 x24 * x47 - 18 x24 * x48
   - 94 x25 * x27 - 84 x25 * x30 - 62 x25 * x31 - 30 x25 * x33
   + 14 x25 * x34 + 2 x25 * x37 - 42 x25 * x38 + 46 x25 * x39
   + 80 x25 * x41 + 48 x25 * x42 + 30 x25 * x43 + 62 x25 * x47 + 29 x26 ^2
   - 76 x26 * x27 + 96 x26 * x30 - 54 x26 * x31 - 42 x26 * x35
   - 20 x26 * x36 + 36 x26 * x37 - 52 x26 * x38 - 54 x26 * x41
   - 64 x26 * x44 + 52 x26 * x46 + 44 x26 * x47 + 33 x27 ^2 - 42 x27 * x28
   - 30 x27 * x30 - 54 x27 * x31 - 76 x27 * x35 - 44 x27 * x36
   + 68 x27 * x37 - 4 x27 * x39 + 6 x27 * x40 - 28 x27 * x47 + 2 x28 * x29
   + 20 x28 * x31 - 42 x28 * x36 - 78 x28 * x37 - 4 x28 * x38
   + 18 x28 * x42 - 16 x28 * x44 - 42 x28 * x48 - 4 x29 ^2 + 14 x29 * x31
   + 96 x29 * x32 - 30 x29 * x33 - 94 x29 * x35 + 88 x29 * x38
   + 66 x29 * x39 - 28 x29 * x40 + 78 x29 * x43 + 84 x29 * x44
   - 92 x29 * x45 + 6 x29 * x48 - 28 x30 ^2 + 12 x30 * x31 - 98 x30 * x32
   - 42 x30 * x33 - 52 x30 * x36 + 62 x30 * x37 + 86 x30 * x38
   + 98 x30 * x40 + 68 x30 * x42 + 52 x30 * x45 - 66 x30 * x46
   + 86 x30 * x47 + 78 x30 * x49 + 42 x31 ^2 + 18 x31 * x33 + 48 x31 * x34
   - 72 x31 * x35 + 72 x31 * x36 - 36 x31 * x37 - 84 x31 * x38
   + 20 x31 * x40 - 92 x31 * x43 - 10 x31 * x47 + 8 x31 * x49 - 38 x32 ^2
   - 16 x32 * x34 - 70 x32 * x35 - 22 x32 * x36 + 98 x32 * x37
   + 36 x32 * x38 - 14 x32 * x40 + 64 x32 * x41 - 28 x32 * x44
   + 10 x32 * x46 + 8 x32 * x47 + 20 x32 * x48 - 22 x33 ^2 - 58 x33 * x39
   - 54 x33 * x40 - 28 x33 * x43 + 94 x33 * x45 + 64 x33 * x46
   - 94 x33 * x47 + 78 x34 * x39 - 48 x34 * x40 + 18 x34 * x42
   - 12 x34 * x43 + 54 x34 * x44 - 98 x34 * x46 + 22 x34 * x48
   + 98 x34 * x49 + 4 x35 ^2 + 50 x35 * x36 - 48 x35 * x40 + 48 x35 * x41
   + 94 x35 * x45 - 56 x35 * x47 + 10 x36 ^2 - 20 x36 * x38 - 80 x36 * x39
   - 18 x36 * x40 - 44 x36 * x45 + 88 x36 * x47 - 47 x37 ^2 + 62 x37 * x38
   - 90 x37 * x40 - 46 x37 * x41 - 50 x37 * x42 + 70 x37 * x44
   + 16 x37 * x48 - 46 x38 * x39 - 94 x38 * x41 - 94 x38 * x42
   - 88 x38 * x43 - 46 x38 * x46 - 52 x38 * x47 + 42 x38 * x48
   - 98 x38 * x49 - 32 x39 ^2 + 42 x39 * x41 + 28 x39 * x46 - 40 x40 ^2
   + 62 x40 * x41 + 38 x40 * x43 + 62 x40 * x48 - 52 x41 * x43
   + 70 x41 * x46 + 18 x41 * x48 + 30 x41 * x49 - 19 x42 ^2 - 78 x42 * x43
   - 74 x42 * x47 - 28 x43 ^2 - 28 x43 * x47 - 50 x43 * x49 - 19 x44 ^2
   + 34 x44 * x48 + 68 x44 * x49 + 66 x45 * x47 + 32 x45 * x49
   + 20 x46 * x47 + 2 x46 * x49 - 40 x47 ^2 - 70 x47 * x48 + 35 x48 ^2
   - 84 x48 * x49 ] / 2 
Subject To
Bounds
 x0 <= 1
 x1 <= 1
 x2 <= 1
 x3 <= 1
 x4 <= 1
 x5 <= 1
 x6 <= 1
 x7 <= 1
 x8 <= 1
 x9 <= 1
 x10 <= 1
 x11 <= 1
 x12 <= 1
 x13 <= 1
 x14 <= 1
 x15 <= 1
 x16 <= 1
 x17 <= 1
 x18 <= 1
 x19 <= 1
 x20 <= 1
 x21 <= 1
 x22 <= 1
 x23 <= 1
 x24 <= 1
 x25 <= 1
 x26 <= 1
 x27 <= 1
 x28 <= 1
 x29 <= 1
 x30 <= 1
 x31 <= 1
 x32 <= 1
 x33 <= 1
 x34 <= 1
 x35 <= 1
 x36 <= 1
 x37 <= 1
 x38 <= 1
 x39 <= 1
 x40 <= 1
 x41 <= 1
 x42 <= 1
 x43 <= 1
 x44 <= 1
 x45 <= 1
 x46 <= 1
 x47 <= 1
 x48 <= 1
 x49 <= 1
End
